objective value:                  0.00147382177200014
x_1_2                                               1 	(obj:0)
x_2_2                                               1 	(obj:0)
x_3_1                                               1 	(obj:0)
x_4_1                                               1 	(obj:0)
x_5_3                                               1 	(obj:0)
x_6_2                                               1 	(obj:0)
x_7_3                                               1 	(obj:0)
x_8_2                                               1 	(obj:0)
x_9_1                                               1 	(obj:0)
x_10_3                                              1 	(obj:0)
x_11_2                                              1 	(obj:0)
x_12_3                                              1 	(obj:0)
x_13_2                                              1 	(obj:0)
x_14_3                                              1 	(obj:0)
x_15_1                                              1 	(obj:0)
x_16_1                                              1 	(obj:0)
x_17_3                                              1 	(obj:0)
x_18_1                                              1 	(obj:0)
x_19_2                                              1 	(obj:0)
x_20_2                                              1 	(obj:0)
ind_1                                               1 	(obj:0)
abs_1_3                                             1 	(obj:0)
ind_2                                               1 	(obj:0)
abs_2_1                                             1 	(obj:0)
ind_3                                               1 	(obj:0)
abs_3_2                                             1 	(obj:0)
epsI                              0.00147382177200014 	(obj:1)
prodt_x_19_2_t_x_20_2_coh_2                         1 	(obj:0)
prodt_x_1_2_t_x_4_1_more_coh_1           0.1364375087 	(obj:0)
prodt_x_3_1_t_x_5_1_more_coh_1          2.10797830965 	(obj:0)
prodt_x_4_1_t_x_5_1_more_coh_1          2.21896341995 	(obj:0)
prodt_x_9_1_t_x_14_1_more_coh_1          1.2626146314 	(obj:0)
prodt_x_15_1_t_x_16_1_more_coh_1     1.02321393736667 	(obj:0)
prodt_x_16_1_t_x_17_1_more_coh_1  0.00188571199999954 	(obj:0)
prodt_x_1_2_t_x_4_2_more_coh_2           2.3535427922 	(obj:0)
prodt_x_2_2_t_x_3_2_more_coh_2            4.586158704 	(obj:0)
prodt_x_6_2_t_x_7_2_more_coh_2           2.7277065599 	(obj:0)
prodt_x_8_2_t_x_11_2_more_coh_2         1.12122826925 	(obj:0)
prodt_x_11_2_t_x_12_2_more_coh_2         1.8635509954 	(obj:0)
prodt_x_13_2_t_x_15_2_more_coh_2          1.282271011 	(obj:0)
prodt_x_5_3_t_x_6_3_more_coh_3           1.6654089545 	(obj:0)
prodt_x_7_3_t_x_9_3_more_coh_3          1.77277941245 	(obj:0)
prodt_x_10_3_t_x_11_3_more_coh_3         1.1858546483 	(obj:0)
prodt_x_12_3_t_x_13_3_more_coh_3         0.7218973476 	(obj:0)
prodt_x_14_3_t_x_15_3_more_coh_3          0.001581306 	(obj:0)
prodt_x_1_2_t_x_19_2_more_irrev1_2_1    -1.94969533999999 	(obj:0)
prodt_x_2_2_t_x_5_1_more_irrev1_2_1   -0.874622159999999 	(obj:0)
prodt_x_3_1_t_x_6_2_more_irrev1_2_1          -1.20648959 	(obj:0)
prodt_x_4_1_t_x_5_2_more_irrev1_2_1    -1.77536179999999 	(obj:0)
prodt_x_6_2_t_x_7_1_more_irrev1_2_1    -1.70272128999998 	(obj:0)
prodt_x_8_2_t_x_12_1_more_irrev1_2_1          -2.16721995 	(obj:0)
prodt_x_9_1_t_x_11_2_more_irrev1_2_1          -1.78213652 	(obj:0)
prodt_x_11_2_t_x_12_1_more_irrev1_2_1          -1.23027673 	(obj:0)
prodt_x_13_2_t_x_15_1_more_irrev1_2_1          -0.92866839 	(obj:0)
prodt_x_15_1_t_x_17_2_more_irrev1_2_1   -0.705623439999999 	(obj:0)
prodt_x_16_1_t_x_18_2_more_irrev1_2_1   -0.948949859999999 	(obj:0)
prodt_x_18_1_t_x_20_2_more_irrev1_2_1   -0.832742509999997 	(obj:0)
prodt_x_1_2_t_x_5_2_more_irrev2_2_1     1.94969533999999 	(obj:0)
prodt_x_2_2_t_x_3_1_more_irrev2_2_1           0.87462216 	(obj:0)
prodt_x_3_1_t_x_6_2_more_irrev2_2_1           1.20648959 	(obj:0)
prodt_x_4_1_t_x_5_2_more_irrev2_2_1     1.77536179999999 	(obj:0)
prodt_x_6_2_t_x_7_1_more_irrev2_2_1     1.70272128999998 	(obj:0)
prodt_x_8_2_t_x_9_1_more_irrev2_2_1           2.16721995 	(obj:0)
prodt_x_9_1_t_x_11_2_more_irrev2_2_1           1.78213652 	(obj:0)
prodt_x_11_2_t_x_13_1_more_irrev2_2_1           1.23027673 	(obj:0)
prodt_x_13_2_t_x_17_1_more_irrev2_2_1    0.928668389999999 	(obj:0)
prodt_x_15_1_t_x_20_2_more_irrev2_2_1    0.705623439999999 	(obj:0)
prodt_x_16_1_t_x_20_2_more_irrev2_2_1    0.948949859999999 	(obj:0)
prodt_x_18_1_t_x_19_2_more_irrev2_2_1    0.832742509999997 	(obj:0)
prodt_x_1_2_t_x_19_3_more_irrev1_3_1     1.94987634999999 	(obj:0)
prodt_x_3_1_t_x_6_3_more_irrev1_3_1           3.07421588 	(obj:0)
prodt_x_4_1_t_x_5_3_more_irrev1_3_1     3.76824143000001 	(obj:0)
prodt_x_5_3_t_x_8_1_more_irrev1_3_1           1.52064574 	(obj:0)
prodt_x_7_3_t_x_10_1_more_irrev1_3_1    0.973337449999998 	(obj:0)
prodt_x_9_1_t_x_11_3_more_irrev1_3_1    0.600507920000001 	(obj:0)
prodt_x_10_3_t_x_11_1_more_irrev1_3_1    0.357292089999998 	(obj:0)
prodt_x_12_3_t_x_18_1_more_irrev1_3_1           1.84279648 	(obj:0)
prodt_x_14_3_t_x_16_1_more_irrev1_3_1     2.76735665000001 	(obj:0)
prodt_x_15_1_t_x_17_3_more_irrev1_3_1           -0.2244621 	(obj:0)
prodt_x_16_1_t_x_18_3_more_irrev1_3_1           0.44203898 	(obj:0)
prodt_x_17_3_t_x_20_1_more_irrev1_3_1           -0.3800445 	(obj:0)
prodt_x_1_2_t_x_5_3_more_irrev2_3_1    -1.94987634999999 	(obj:0)
prodt_x_3_1_t_x_6_3_more_irrev2_3_1          -3.07421588 	(obj:0)
prodt_x_4_1_t_x_5_3_more_irrev2_3_1    -3.76824143000001 	(obj:0)
prodt_x_5_3_t_x_8_1_more_irrev2_3_1          -1.52064574 	(obj:0)
prodt_x_7_3_t_x_10_1_more_irrev2_3_1   -0.973337449999999 	(obj:0)
prodt_x_9_1_t_x_11_3_more_irrev2_3_1   -0.600507920000001 	(obj:0)
prodt_x_10_3_t_x_12_1_more_irrev2_3_1   -0.357292089999998 	(obj:0)
prodt_x_12_3_t_x_13_1_more_irrev2_3_1          -1.84279648 	(obj:0)
prodt_x_14_3_t_x_15_1_more_irrev2_3_1    -2.76735665000001 	(obj:0)
prodt_x_15_1_t_x_20_3_more_irrev2_3_1            0.2244621 	(obj:0)
prodt_x_16_1_t_x_20_3_more_irrev2_3_1          -0.44203898 	(obj:0)
prodt_x_17_3_t_x_18_1_more_irrev2_3_1            0.3800445 	(obj:0)
prodt_x_1_2_t_x_19_3_more_irrev1_3_2    -1.94987634999999 	(obj:0)
prodt_x_2_2_t_x_3_3_more_irrev1_3_2    -2.46910837000001 	(obj:0)
prodt_x_5_3_t_x_8_2_more_irrev1_3_2          -1.81013871 	(obj:0)
prodt_x_6_2_t_x_7_3_more_irrev1_3_2   -0.736676470000005 	(obj:0)
prodt_x_7_3_t_x_10_2_more_irrev1_3_2          -1.26204783 	(obj:0)
prodt_x_8_2_t_x_12_3_more_irrev1_3_2   -0.256357290000005 	(obj:0)
prodt_x_10_3_t_x_11_2_more_irrev1_3_2          -2.15779938 	(obj:0)
prodt_x_11_2_t_x_14_3_more_irrev1_3_2    -1.83965282999999 	(obj:0)
prodt_x_12_3_t_x_18_2_more_irrev1_3_2           0.23536878 	(obj:0)
prodt_x_13_2_t_x_14_3_more_irrev1_3_2   -0.309347569999999 	(obj:0)
prodt_x_14_3_t_x_16_2_more_irrev1_3_2          -1.02836246 	(obj:0)
prodt_x_17_3_t_x_20_2_more_irrev1_3_2          -1.16081286 	(obj:0)
prodt_x_1_2_t_x_5_3_more_irrev2_3_2     1.94987634999999 	(obj:0)
prodt_x_2_2_t_x_4_3_more_irrev2_3_2     2.46910837000001 	(obj:0)
prodt_x_5_3_t_x_8_2_more_irrev2_3_2           1.81013871 	(obj:0)
prodt_x_6_2_t_x_7_3_more_irrev2_3_2    0.736676470000005 	(obj:0)
prodt_x_7_3_t_x_10_2_more_irrev2_3_2           1.26204783 	(obj:0)
prodt_x_8_2_t_x_9_3_more_irrev2_3_2    0.256357290000005 	(obj:0)
prodt_x_10_3_t_x_12_2_more_irrev2_3_2     2.15779938000001 	(obj:0)
prodt_x_11_2_t_x_13_3_more_irrev2_3_2     1.83965282999999 	(obj:0)
prodt_x_12_3_t_x_13_2_more_irrev2_3_2          -0.23536878 	(obj:0)
prodt_x_13_2_t_x_14_3_more_irrev2_3_2           0.30934757 	(obj:0)
prodt_x_14_3_t_x_15_2_more_irrev2_3_2           1.02836246 	(obj:0)
prodt_x_17_3_t_x_18_2_more_irrev2_3_2           1.16081286 	(obj:0)
SCIP Status        : solving was interrupted [time limit reached]
Total Time         :    3600.00
  solving          :    3600.00
  presolving       :       0.05 (included in solving)
  reading          :       0.00
  copying          :       1.81 (189 #copies) (minimal 0.00, maximal 0.02, average 0.01)
Original Problem   :
  Problem name     : ../instances/Pot6Cycle/Pot6Cycle_T_20B_1t.txt.spa
  Variables        : 101 (100 binary, 0 integer, 0 implicit integer, 1 continuous)
  Constraints      : 193 initial, 193 maximal
  Objective sense  : maximize
Presolved Problem  :
  Problem name     : t_../instances/Pot6Cycle/Pot6Cycle_T_20B_1t.txt.spa
  Variables        : 590 (92 binary, 0 integer, 16 implicit integer, 482 continuous)
  Constraints      : 2039 initial, 6186 maximal
Presolvers         :   ExecTime  SetupTime  Calls  FixedVars   AggrVars   ChgTypes  ChgBounds   AddHoles    DelCons    AddCons   ChgSides   ChgCoefs
  boundshift       :       0.00       0.00      0          0          0          0          0          0          0          0          0          0
  components       :       0.00       0.00      1          0          0          0          0          0          0          0          0          0
  convertinttobin  :       0.00       0.00      0          0          0          0          0          0          0          0          0          0
  domcol           :       0.00       0.00      1          0          0          0          0          0          0          0          0          0
  dualagg          :       0.00       0.00      0          0          0          0          0          0          0          0          0          0
  dualinfer        :       0.00       0.00      0          0          0          0          0          0          0          0          0          0
  gateextraction   :       0.00       0.00      3          0          0          0          0          0        108         34          0          0
  implfree         :       0.00       0.00      0          0          0          0          0          0          0          0          0          0
  implics          :       0.00       0.00      4          0          0          0          0          0          0          0          0          0
  inttobinary      :       0.00       0.00      0          0          0          0          0          0          0          0          0          0
  redvub           :       0.00       0.00      0          0          0          0          0          0          0          0          0          0
  stuffing         :       0.00       0.00      1          0          0          0          0          0          0          0          0          0
  trivial          :       0.00       0.00      7          0          0          0          0          0          0          0          0          0
  tworowbnd        :       0.00       0.00      0          0          0          0          0          0          0          0          0          0
  dualfix          :       0.00       0.00      7          4          0          0          0          0          0          0          0          0
  genvbounds       :       0.00       0.00      0          0          0          0          0          0          0          0          0          0
  probing          :       0.03       0.00      1          0          0          0          0          0          0          0          0          0
  pseudoobj        :       0.00       0.00      0          0          0          0          0          0          0          0          0          0
  varbound         :       0.00       0.00      9          0          0          0          0          0         28         28          0          0
  setppc           :       0.00       0.00     12          0          0          0          0          0          0          0          0          0
  and              :       0.00       0.00      4          0         12          0          0          0         12          0          0          0
  linear           :       0.01       0.00      9          3          1          0          4          0          7          0         12         12
  logicor          :       0.00       0.00      7          0          0          0          0          0          0          0          0          0
  bounddisjunction :       0.00       0.00      0          0          0          0          0          0          0          0          0          0
  quadratic        :       0.01       0.00      2          0          0          0          0          0          0       1939          0          0
  root node        :          -          -      -          1          -          -         83          -          -          -          -          -
Constraints        :     Number  MaxNumber  #Separate #Propagate    #EnfoLP    #EnfoPS     #Check   #ResProp    Cutoffs    DomReds       Cuts    Applied      Conss   Children
  integral         :          0          0          0          0    2289536          0     494833          0          0      32539          0          0        245    4493776
  varbound         :        893        893         89   13319846      39260          0     111821    5216406      94965   90106736          0          0          0          0
  setppc           :        110+       256         89   13224182      39259          0       5512    3258696      56754    6055490         10          0          0          0
  and              :         22         22      51912     260867         10          0       4582     352363         18      75165       1152       1143          0          0
  linear           :        979        979         89   13168113      35487          0       4503    3207874     338680  146409622    1258589    1258369          0          0
  logicor          :         35+       858         67    3419872          0          0          0     143985       7368     151195          2          2          0          0
  bounddisjunction :          0+      3247          0    6293483          0          0          0     547239      10935    7108218          0          0          0          0
  countsols        :          0          0          0          0          0          0     382792          0          0          0          0          0          0          0
Constraint Timings :  TotalTime  SetupTime   Separate  Propagate     EnfoLP     EnfoPS      Check    ResProp    SB-Prop
  integral         :      18.65       0.00       0.00       0.00      18.63       0.00       0.02       0.00       0.00
  varbound         :      71.75       0.00       0.00      69.86       0.19       0.00       0.62       1.01       0.07
  setppc           :      55.13       0.00       0.00      54.20       0.03       0.00       0.03       0.73       0.14
  and              :       0.19       0.00       0.04       0.04       0.00       0.00       0.01       0.08       0.02
  linear           :     223.02       0.00       0.01     219.56       0.94       0.00       0.09       2.04       0.38
  logicor          :      15.94       0.00       0.00      15.85       0.00       0.00       0.00       0.08       0.01
  bounddisjunction :     114.36       0.00       0.00     114.12       0.00       0.00       0.00       0.21       0.03
  countsols        :       0.00       0.00       0.00       0.00       0.00       0.00       0.00       0.00       0.00
Propagators        : #Propagate   #ResProp    Cutoffs    DomReds
  dualfix          :          2          0          0          0
  genvbounds       :          0          0          0          0
  obbt             :          0          0          0          0
  probing          :          0          0          0          0
  pseudoobj        :   14223360          0         37         79
  redcost          :    5130846          0          7     960486
  rootredcost      :          5          0          0          3
  vbounds          :   15605840      12326          5       9933
Propagator Timings :  TotalTime  SetupTime   Presolve  Propagate    ResProp    SB-Prop
  dualfix          :       0.00       0.00       0.00       0.00       0.00       0.00
  genvbounds       :       2.06       0.00       0.00       2.06       0.00       0.00
  obbt             :       0.00       0.00       0.00       0.00       0.00       0.00
  probing          :       0.03       0.00       0.03       0.00       0.00       0.00
  pseudoobj        :       3.48       0.00       0.00       3.48       0.00       0.00
  redcost          :      31.00       0.00       0.00      31.00       0.00       0.00
  rootredcost      :       2.24       0.00       0.00       2.24       0.00       0.00
  vbounds          :       5.13       0.00       0.00       5.12       0.00       0.01
Conflict Analysis  :       Time      Calls    Success    DomReds  Conflicts   Literals    Reconvs ReconvLits   LP Iters
  propagation      :      10.33     170922     170492          -    2276007       40.5      14060       45.1          -
  infeasible LP    :       9.34      66623      55106          -     834307       38.5        178       15.2          0
  bound exceed. LP :       0.00          0          0          -          0        0.0          0        0.0          0
  strong branching :       0.00          0          0          -          0        0.0          0        0.0          0
  pseudo solution  :       0.00          0          0          -          0        0.0          0        0.0          -
  applied globally :       4.05          -          -          0     323430       20.2          -          -          -
  applied locally  :          -          -          -          0      17565       33.2          -          -          -
Separators         :   ExecTime  SetupTime      Calls    Cutoffs    DomReds       Cuts    Applied      Conss
  cut pool         :       0.00                    87          -          -       1271          -          -    (maximal pool size: 762)
  cgmip            :       0.00       0.00          0          0          0          0          0          0
  clique           :       0.02       0.00         88          0          0         39         34          0
  closecuts        :       0.00       0.00          0          0          0          0          0          0
  cmir             :       0.03       0.00         10          0          0        210        157          0
  disjunctive      :       0.00       0.00          0          0          0          0          0          0
  eccuts           :       0.00       0.00          0          0          0          0          0          0
  flowcover        :       0.10       0.00         15          0          0        232         33          0
  gomory           :       0.02       0.00         10          0          0          6          6          0
  impliedbounds    :       0.00       0.00         88          0          0        690        123          0
  intobj           :       0.00       0.00          0          0          0          0          0          0
  mcf              :       0.00       0.00          1          0          0          0          0          0
  oddcycle         :       0.00       0.00          0          0          0          0          0          0
  rapidlearning    :       0.00       0.00          0          0          0          0          0          0
  strongcg         :       0.04       0.00         20          0          0         21          3          0
  zerohalf         :       0.00       0.00          0          0          0          0          0          0
Pricers            :   ExecTime  SetupTime      Calls       Vars
  problem variables:       0.00          -          0          0
Branching Rules    :   ExecTime  SetupTime   BranchLP  BranchExt   BranchPS    Cutoffs    DomReds       Cuts      Conss   Children
  allfullstrong    :       0.00       0.00          0          0          0          0          0          0          0          0
  cloud            :       0.00       0.00          0          0          0          0          0          0          0          0
  distribution     :       0.00       0.00          0          0          0          0          0          0          0          0
  fullstrong       :       0.00       0.00          0          0          0          0          0          0          0          0
  inference        :       0.00       0.00          0          0          0          0          0          0          0          0
  leastinf         :       0.00       0.00          0          0          0          0          0          0          0          0
  mostinf          :       0.00       0.00          0          0          0          0          0          0          0          0
  multaggr         :       0.00       0.00          0          0          0          0          0          0          0          0
  nodereopt        :       0.00       0.00          0          0          0          0          0          0          0          0
  pscost           :       0.00       0.00          0          0          0          0          0          0          0          0
  random           :       0.00       0.00          0          0          0          0          0          0          0          0
  relpscost        :      17.74       0.00    2250276          0          0          0      32539          0       -334    4493776
Primal Heuristics  :   ExecTime  SetupTime      Calls      Found       Best
  LP solutions     :       0.00          -          -          0          -
  pseudo solutions :       0.00          -          -          0          -
  strong branching :       0.00          -          -          0          -
  SpaGreedy        :     403.69       0.00     382787          2          1
  actconsdiving    :       0.00       0.00          0          0          0
  bound            :       0.00       0.00          0          0          0
  clique           :       0.00       0.00          0          0          0
  coefdiving       :      26.55       0.00      10594          0          0
  crossover        :       0.97       0.00          3          0          0
  dins             :       0.00       0.00          0          0          0
  distributiondivin:      50.45       0.00      10594          0          0
  dualval          :       0.00       0.00          0          0          0
  feaspump         :      17.09       0.00       2306          0          0
  fixandinfer      :       0.00       0.00          0          0          0
  fracdiving       :      25.68       0.00      10595          0          0
  guideddiving     :      27.96       0.00      10594          0          0
  indicator        :       0.38       0.00          0          0          0
  intdiving        :       0.00       0.00          0          0          0
  intshifting      :       0.36       0.00        117          0          0
  linesearchdiving :      26.51       0.00      10594          1          1
  localbranching   :       0.00       0.00          0          0          0
  mutation         :       0.00       0.00          0          0          0
  nlpdiving        :       0.04       0.00          0          0          0
  objpscostdiving  :      17.20       0.00       3252          0          0
  octane           :       0.00       0.00          0          0          0
  ofins            :       0.00       0.00          0          0          0
  oneopt           :       0.80       0.00          4          0          0
  proximity        :       0.00       0.00          0          0          0
  pscostdiving     :      26.04       0.00      10595          0          0
  randrounding     :       1.24       0.00     108502          0          0
  rens             :       0.28       0.00          1          0          0
  reoptsols        :       0.00       0.00          0          0          0
  rins             :      10.62       0.00        173          3          3
  rootsoldiving    :      18.35       0.00       3482          0          0
  rounding         :       0.95       0.00      20842          0          0
  shiftandpropagate:       0.00       0.00          0          0          0
  shifting         :       1.59       0.00       6043          0          0
  simplerounding   :       0.54       0.00          0          0          0
  subnlp           :       0.63       0.00          0          0          0
  trivial          :       0.00       0.00          2          0          0
  trivialnegation  :       0.00       0.00          0          0          0
  trysol           :       0.69       0.00          0          0          0
  twoopt           :       0.00       0.00          0          0          0
  undercover       :       0.00       0.00          1          0          0
  vbounds          :       0.00       0.00          0          0          0
  veclendiving     :      28.41       0.00      10595          0          0
  zeroobj          :       0.00       0.00          0          0          0
  zirounding       :       0.62       0.00       1000          0          0
  other solutions  :          -          -          -          0          -
Diving Statistics  :      Calls      Nodes   LP Iters Backtracks   MinDepth   MaxDepth   AvgDepth  NLeafSols  MinSolDpt  MaxSolDpt  AvgSolDpt
  actconsdiving    :          0          -          -          -          -          -          -          -          -          -          -
  coefdiving       :      10594      70773     609517      14753         17         46       28.3          -          -          -          -
  distributiondivin:      10594      64515     621516      14381         17         41       28.0          -          -          -          -
  fracdiving       :      10595      71532     620427      16769         16         45       28.2          -          -          -          -
  guideddiving     :      10594      80035     718284      15995         18         48       29.3          -          -          -          -
  linesearchdiving :      10594      65583     641015      16849         17         41       27.6          -          -          -          -
  pscostdiving     :      10595      81058     622173      12905         17         49       29.5          -          -          -          -
  veclendiving     :      10595      69818     612234      19010         17         41       27.8          -          -          -          -
LP                 :       Time      Calls Iterations  Iter/call   Iter/sec  Time-0-It Calls-0-It
  primal LP        :       0.00         13          0       0.00          -       0.00         13
  dual LP          :    1397.29    4419588   57539111      16.18   41179.08      82.80     863092
  lex dual LP      :       0.00          0          0       0.00          -
  barrier LP       :       0.00          0          0       0.00          -       0.00          0
  diving/probing LP:     143.56     258791    6264417      24.21   43636.23
  strong branching :       5.68       5634     219276      38.92   38604.93
    (at root node) :          -         22       2317     105.32          -
  conflict analysis:       0.00          0          0       0.00          -
B&B Tree           :
  number of runs   :          1
  nodes            :    4145691 (2246888 internal, 1898803 leaves)
  nodes (total)    :    4145691 (2246888 internal, 1898803 leaves)
  nodes left       :     330357
  max depth        :         40
  max depth (total):         40
  backtracks       :     983614 (23.7%)
  delayed cutoffs  :      15128
  repropagations   :     187368 (4474080 domain reductions, 14374 cutoffs)
  avg switch length:       5.61
  switching time   :     560.51
Root Node          :
  First LP value   : +3.00000000000000e+00
  First LP Iters   :        373 (37300.00 Iter/sec)
  First LP Time    :       0.01
  Final Dual Bound : +1.08090616881582e-02
  Final Root Iters :       3961
Solution           :
  Solutions found  :          6 (5 improvements)
  First Solution   : +1.03489565400000e-03   (in run 1, after 1 nodes, 0.05 seconds, depth 0, found by <SpaGreedy>)
  Gap First Sol.   :   infinite
  Gap Last Sol.    :      74.27 %
  Primal Bound     : +1.47382177200014e-03   (in run 1, after 262479 nodes, 248.76 seconds, depth 18, found by <rins>)
  Dual Bound       : +2.14925014177433e-03
  Gap              :      45.83 %
  Avg. Gap         :      44.94 % (161788.78 primal-dual integral)
